data/lp_files/q3/39_0.lp
\ Model foo
\ LP format - for model browsing. Use MPS format to capture full model detail.
Minimize
  z
Subject To
 allocateEach[1]: x[1,1] + x[2,1] = 1
 allocateEach[2]: x[1,2] + x[2,2] = 1
 allocateEach[3]: x[1,3] + x[2,3] = 1
 allocateEach[4]: x[1,4] + x[2,4] = 1
 allocateEach[5]: x[1,5] + x[2,5] = 1
 allocateEach[6]: x[1,6] + x[2,6] = 1
 allocateEach[7]: x[1,7] + x[2,7] = 1
 allocateEach[8]: x[1,8] + x[2,8] = 1
 allocateEach[9]: x[1,9] + x[2,9] = 1
 allocateEach[10]: x[1,10] + x[2,10] = 1
 allocateEach[11]: x[1,11] + x[2,11] = 1
 allocateEach[12]: x[1,12] + x[2,12] = 1
 allocateEach[13]: x[1,13] + x[2,13] = 1
 allocateEach[14]: x[1,14] + x[2,14] = 1
 allocateEach[15]: x[1,15] + x[2,15] = 1
 allocateEach[16]: x[1,16] + x[2,16] = 1
 allocateEach[17]: x[1,17] + x[2,17] = 1
 allocateEach[18]: x[1,18] + x[2,18] = 1
 allocateEach[19]: x[1,19] + x[2,19] = 1
 allocateAllCash: cashProportion[1] + cashProportion[2] = 1
 findWorstP[1,2]: z + 0.00597507199961759 cashProportion[1]
   - 0.00597507199961759 cashProportion[2] + 0.095015594937919 x[1,1]
   + 0.00412279967973614 x[1,2] + 0.0595834179801866 x[1,3]
   + 0.1192982875443649 x[1,4] + 0.00272463283182562 x[1,5]
   + 0.0607903825241094 x[1,6] + 0.0910839975621706 x[1,7]
   + 0.0779627394510104 x[1,8] + 0.0752381066191847 x[1,9]
   + 0.0897694817222547 x[1,10] + 0.0686177268436085 x[1,11]
   + 0.014889879423047 x[1,12] + 0.025047501822397 x[1,13]
   + 0.0160848938229706 x[1,14] + 0.0117589416952474 x[1,15]
   + 0.0493062941408444 x[1,16] + 0.0717247642834096 x[1,17]
   + 0.0487924379488773 x[1,18] + 0.0122130471672184 x[1,19]
   - 0.095015594937919 x[2,1] - 0.00412279967973614 x[2,2]
   - 0.0595834179801866 x[2,3] - 0.1192982875443649 x[2,4]
   - 0.00272463283182562 x[2,5] - 0.0607903825241094 x[2,6]
   - 0.0910839975621706 x[2,7] - 0.0779627394510104 x[2,8]
   - 0.0752381066191847 x[2,9] - 0.0897694817222547 x[2,10]
   - 0.0686177268436085 x[2,11] - 0.014889879423047 x[2,12]
   - 0.025047501822397 x[2,13] - 0.0160848938229706 x[2,14]
   - 0.0117589416952474 x[2,15] - 0.0493062941408444 x[2,16]
   - 0.0717247642834096 x[2,17] - 0.0487924379488773 x[2,18]
   - 0.0122130471672184 x[2,19] >= 0
 findWorstP[2,1]: z - 0.00550521343712496 cashProportion[1]
   + 0.00550521343712496 cashProportion[2] - 0.0437444259713949 x[1,1]
   - 0.0105039472380344 x[1,2] - 0.031985290069696 x[1,3]
   - 0.00733294429825044 x[1,4] - 0.094546535569184 x[1,5]
   - 0.0726467965163009 x[1,6] - 0.00941391497748368 x[1,7]
   - 0.1068231615339726 x[1,8] - 0.1028153661517457 x[1,9]
   - 0.0598636909152968 x[1,10] - 0.0616914217764223 x[1,11]
   - 0.1058872752496614 x[1,12] - 0.0676921044228885 x[1,13]
   - 0.0773922904991026 x[1,14] - 0.0192572366030631 x[1,15]
   - 0.0349911366063662 x[1,16] - 0.0704006694339539 x[1,17]
   - 0.0174515265956861 x[1,18] - 5.50521e-05 x[1,19]
   + 0.0437444259713949 x[2,1] + 0.0105039472380344 x[2,2]
   + 0.031985290069696 x[2,3] + 0.00733294429825044 x[2,4]
   + 0.094546535569184 x[2,5] + 0.0726467965163009 x[2,6]
   + 0.00941391497748368 x[2,7] + 0.1068231615339726 x[2,8]
   + 0.1028153661517457 x[2,9] + 0.0598636909152968 x[2,10]
   + 0.0616914217764223 x[2,11] + 0.1058872752496614 x[2,12]
   + 0.0676921044228885 x[2,13] + 0.0773922904991026 x[2,14]
   + 0.0192572366030631 x[2,15] + 0.0349911366063662 x[2,16]
   + 0.0704006694339539 x[2,17] + 0.0174515265956861 x[2,18]
   + 5.50521e-05 x[2,19] >= 0
Bounds
 z <= 1
 -infinity <= cashProportion[1] <= 1
 -infinity <= cashProportion[2] <= 1
Binaries
 x[1,1] x[1,2] x[1,3] x[1,4] x[1,5] x[1,6] x[1,7] x[1,8] x[1,9] x[1,10]
 x[1,11] x[1,12] x[1,13] x[1,14] x[1,15] x[1,16] x[1,17] x[1,18] x[1,19]
 x[2,1] x[2,2] x[2,3] x[2,4] x[2,5] x[2,6] x[2,7] x[2,8] x[2,9] x[2,10]
 x[2,11] x[2,12] x[2,13] x[2,14] x[2,15] x[2,16] x[2,17] x[2,18] x[2,19]
End
