data/mps_files/pEFS/39_0.mps
NAME foo
ROWS
 N  OBJ
 E  allocateEach[1]
 E  allocateEach[2]
 E  allocateEach[3]
 E  allocateEach[4]
 E  allocateEach[5]
 E  allocateEach[6]
 E  allocateEach[7]
 E  allocateEach[8]
 E  allocateEach[9]
 E  allocateEach[10]
 E  allocateEach[11]
 E  allocateEach[12]
 E  allocateEach[13]
 E  allocateEach[14]
 E  allocateEach[15]
 E  allocateEach[16]
 E  allocateEach[17]
 E  allocateEach[18]
 E  allocateEach[19]
 E  allocateAllCash
 G  findWorstP[1,2]
 G  findWorstP[2,1]
COLUMNS
    z         OBJ       1
    z         findWorstP[1,2]  1
    z         findWorstP[2,1]  1
    cashProportion[1]  allocateAllCash  1
    cashProportion[1]  findWorstP[1,2]  5.9750719996175946e-03
    cashProportion[1]  findWorstP[2,1]  -5.5052134371249561e-03
    cashProportion[2]  allocateAllCash  1
    cashProportion[2]  findWorstP[1,2]  -5.9750719996175946e-03
    cashProportion[2]  findWorstP[2,1]  5.5052134371249561e-03
    MARKER    'MARKER'                 'INTORG'
    x[1,1]    allocateEach[1]  1
    x[1,1]    findWorstP[1,2]  9.5015594937918987e-02
    x[1,1]    findWorstP[2,1]  -0.0437444259713949
    x[1,2]    allocateEach[2]  1
    x[1,2]    findWorstP[1,2]  4.1227996797361405e-03
    x[1,2]    findWorstP[2,1]  -1.0503947238034416e-02
    x[1,3]    allocateEach[3]  1
    x[1,3]    findWorstP[1,2]  5.9583417980186647e-02
    x[1,3]    findWorstP[2,1]  -3.1985290069695992e-02
    x[1,4]    allocateEach[4]  1
    x[1,4]    findWorstP[1,2]  1.1929828754436488e-01
    x[1,4]    findWorstP[2,1]  -7.3329442982504427e-03
    x[1,5]    allocateEach[5]  1
    x[1,5]    findWorstP[1,2]  2.7246328318256230e-03
    x[1,5]    findWorstP[2,1]  -9.4546535569183993e-02
    x[1,6]    allocateEach[6]  1
    x[1,6]    findWorstP[1,2]  6.0790382524109406e-02
    x[1,6]    findWorstP[2,1]  -7.2646796516300932e-02
    x[1,7]    allocateEach[7]  1
    x[1,7]    findWorstP[1,2]  0.0910839975621706
    x[1,7]    findWorstP[2,1]  -9.4139149774836763e-03
    x[1,8]    allocateEach[8]  1
    x[1,8]    findWorstP[1,2]  7.7962739451010371e-02
    x[1,8]    findWorstP[2,1]  -1.0682316153397264e-01
    x[1,9]    allocateEach[9]  1
    x[1,9]    findWorstP[1,2]  7.5238106619184744e-02
    x[1,9]    findWorstP[2,1]  -1.0281536615174568e-01
    x[1,10]   allocateEach[10]  1
    x[1,10]   findWorstP[1,2]  8.9769481722254726e-02
    x[1,10]   findWorstP[2,1]  -5.9863690915296766e-02
    x[1,11]   allocateEach[11]  1
    x[1,11]   findWorstP[1,2]  6.8617726843608451e-02
    x[1,11]   findWorstP[2,1]  -6.1691421776422263e-02
    x[1,12]   allocateEach[12]  1
    x[1,12]   findWorstP[1,2]  1.4889879423047045e-02
    x[1,12]   findWorstP[2,1]  -1.0588727524966141e-01
    x[1,13]   allocateEach[13]  1
    x[1,13]   findWorstP[1,2]  2.5047501822396956e-02
    x[1,13]   findWorstP[2,1]  -6.7692104422888463e-02
    x[1,14]   allocateEach[14]  1
    x[1,14]   findWorstP[1,2]  1.6084893822970563e-02
    x[1,14]   findWorstP[2,1]  -7.7392290499102637e-02
    x[1,15]   allocateEach[15]  1
    x[1,15]   findWorstP[1,2]  1.1758941695247426e-02
    x[1,15]   findWorstP[2,1]  -1.9257236603063096e-02
    x[1,16]   allocateEach[16]  1
    x[1,16]   findWorstP[1,2]  4.9306294140844392e-02
    x[1,16]   findWorstP[2,1]  -3.4991136606366227e-02
    x[1,17]   allocateEach[17]  1
    x[1,17]   findWorstP[1,2]  0.0717247642834096
    x[1,17]   findWorstP[2,1]  -7.0400669433953941e-02
    x[1,18]   allocateEach[18]  1
    x[1,18]   findWorstP[1,2]  4.8792437948877276e-02
    x[1,18]   findWorstP[2,1]  -1.7451526595686110e-02
    x[1,19]   allocateEach[19]  1
    x[1,19]   findWorstP[1,2]  1.2213047167218362e-02
    x[1,19]   findWorstP[2,1]  -5.5052134371249561e-05
    x[2,1]    allocateEach[1]  1
    x[2,1]    findWorstP[1,2]  -9.5015594937918987e-02
    x[2,1]    findWorstP[2,1]  0.0437444259713949
    x[2,2]    allocateEach[2]  1
    x[2,2]    findWorstP[1,2]  -4.1227996797361405e-03
    x[2,2]    findWorstP[2,1]  1.0503947238034416e-02
    x[2,3]    allocateEach[3]  1
    x[2,3]    findWorstP[1,2]  -5.9583417980186647e-02
    x[2,3]    findWorstP[2,1]  3.1985290069695992e-02
    x[2,4]    allocateEach[4]  1
    x[2,4]    findWorstP[1,2]  -1.1929828754436488e-01
    x[2,4]    findWorstP[2,1]  7.3329442982504427e-03
    x[2,5]    allocateEach[5]  1
    x[2,5]    findWorstP[1,2]  -2.7246328318256230e-03
    x[2,5]    findWorstP[2,1]  9.4546535569183993e-02
    x[2,6]    allocateEach[6]  1
    x[2,6]    findWorstP[1,2]  -6.0790382524109406e-02
    x[2,6]    findWorstP[2,1]  7.2646796516300932e-02
    x[2,7]    allocateEach[7]  1
    x[2,7]    findWorstP[1,2]  -0.0910839975621706
    x[2,7]    findWorstP[2,1]  9.4139149774836763e-03
    x[2,8]    allocateEach[8]  1
    x[2,8]    findWorstP[1,2]  -7.7962739451010371e-02
    x[2,8]    findWorstP[2,1]  1.0682316153397264e-01
    x[2,9]    allocateEach[9]  1
    x[2,9]    findWorstP[1,2]  -7.5238106619184744e-02
    x[2,9]    findWorstP[2,1]  1.0281536615174568e-01
    x[2,10]   allocateEach[10]  1
    x[2,10]   findWorstP[1,2]  -8.9769481722254726e-02
    x[2,10]   findWorstP[2,1]  5.9863690915296766e-02
    x[2,11]   allocateEach[11]  1
    x[2,11]   findWorstP[1,2]  -6.8617726843608451e-02
    x[2,11]   findWorstP[2,1]  6.1691421776422263e-02
    x[2,12]   allocateEach[12]  1
    x[2,12]   findWorstP[1,2]  -1.4889879423047045e-02
    x[2,12]   findWorstP[2,1]  1.0588727524966141e-01
    x[2,13]   allocateEach[13]  1
    x[2,13]   findWorstP[1,2]  -2.5047501822396956e-02
    x[2,13]   findWorstP[2,1]  6.7692104422888463e-02
    x[2,14]   allocateEach[14]  1
    x[2,14]   findWorstP[1,2]  -1.6084893822970563e-02
    x[2,14]   findWorstP[2,1]  7.7392290499102637e-02
    x[2,15]   allocateEach[15]  1
    x[2,15]   findWorstP[1,2]  -1.1758941695247426e-02
    x[2,15]   findWorstP[2,1]  1.9257236603063096e-02
    x[2,16]   allocateEach[16]  1
    x[2,16]   findWorstP[1,2]  -4.9306294140844392e-02
    x[2,16]   findWorstP[2,1]  3.4991136606366227e-02
    x[2,17]   allocateEach[17]  1
    x[2,17]   findWorstP[1,2]  -0.0717247642834096
    x[2,17]   findWorstP[2,1]  7.0400669433953941e-02
    x[2,18]   allocateEach[18]  1
    x[2,18]   findWorstP[1,2]  -4.8792437948877276e-02
    x[2,18]   findWorstP[2,1]  1.7451526595686110e-02
    x[2,19]   allocateEach[19]  1
    x[2,19]   findWorstP[1,2]  -1.2213047167218362e-02
    x[2,19]   findWorstP[2,1]  5.5052134371249561e-05
    MARKER    'MARKER'                 'INTEND'
RHS
    RHS1      allocateEach[1]  1
    RHS1      allocateEach[2]  1
    RHS1      allocateEach[3]  1
    RHS1      allocateEach[4]  1
    RHS1      allocateEach[5]  1
    RHS1      allocateEach[6]  1
    RHS1      allocateEach[7]  1
    RHS1      allocateEach[8]  1
    RHS1      allocateEach[9]  1
    RHS1      allocateEach[10]  1
    RHS1      allocateEach[11]  1
    RHS1      allocateEach[12]  1
    RHS1      allocateEach[13]  1
    RHS1      allocateEach[14]  1
    RHS1      allocateEach[15]  1
    RHS1      allocateEach[16]  1
    RHS1      allocateEach[17]  1
    RHS1      allocateEach[18]  1
    RHS1      allocateEach[19]  1
    RHS1      allocateAllCash  1
BOUNDS
 UP BND1      z         1
 MI BND1      cashProportion[1]
 UP BND1      cashProportion[1]  1
 MI BND1      cashProportion[2]
 UP BND1      cashProportion[2]  1
 BV BND1      x[1,1]  
 BV BND1      x[1,2]  
 BV BND1      x[1,3]  
 BV BND1      x[1,4]  
 BV BND1      x[1,5]  
 BV BND1      x[1,6]  
 BV BND1      x[1,7]  
 BV BND1      x[1,8]  
 BV BND1      x[1,9]  
 BV BND1      x[1,10] 
 BV BND1      x[1,11] 
 BV BND1      x[1,12] 
 BV BND1      x[1,13] 
 BV BND1      x[1,14] 
 BV BND1      x[1,15] 
 BV BND1      x[1,16] 
 BV BND1      x[1,17] 
 BV BND1      x[1,18] 
 BV BND1      x[1,19] 
 BV BND1      x[2,1]  
 BV BND1      x[2,2]  
 BV BND1      x[2,3]  
 BV BND1      x[2,4]  
 BV BND1      x[2,5]  
 BV BND1      x[2,6]  
 BV BND1      x[2,7]  
 BV BND1      x[2,8]  
 BV BND1      x[2,9]  
 BV BND1      x[2,10] 
 BV BND1      x[2,11] 
 BV BND1      x[2,12] 
 BV BND1      x[2,13] 
 BV BND1      x[2,14] 
 BV BND1      x[2,15] 
 BV BND1      x[2,16] 
 BV BND1      x[2,17] 
 BV BND1      x[2,18] 
 BV BND1      x[2,19] 
ENDATA
